p edge 175 174 74
e 1 94
e 1 132
e 1 166
e 1 126
e 2 42
e 2 17
e 3 136
e 3 24
e 4 54
e 5 57
e 6 50
e 7 61
e 8 123
e 8 116
e 9 104
e 10 156
e 10 158
e 11 107
e 11 121
e 11 43
e 12 84
e 13 51
e 13 28
e 13 82
e 14 163
e 15 54
e 15 171
e 15 152
e 16 42
e 17 98
e 17 159
e 18 74
e 18 79
e 19 30
e 19 135
e 19 110
e 20 146
e 20 93
e 21 152
e 21 89
e 22 165
e 22 126
e 23 71
e 24 108
e 25 161
e 26 70
e 26 173
e 27 100
e 27 146
e 28 113
e 28 43
e 29 85
e 31 151
e 32 163
e 33 65
e 33 102
e 34 62
e 34 35
e 35 76
e 36 56
e 36 120
e 36 167
e 37 86
e 37 117
e 38 129
e 39 128
e 39 117
e 40 79
e 40 52
e 41 119
e 44 116
e 44 79
e 45 67
e 46 59
e 46 104
e 47 152
e 48 144
e 49 109
e 50 91
e 50 52
e 52 77
e 52 125
e 52 175
e 53 112
e 55 97
e 55 77
e 57 74
e 58 112
e 60 64
e 61 64
e 61 174
e 62 102
e 63 162
e 64 85
e 65 139
e 66 115
e 67 162
e 67 146
e 68 127
e 69 72
e 71 96
e 72 109
e 72 81
e 73 168
e 73 102
e 74 89
e 75 174
e 75 76
e 76 142
e 76 119
e 76 93
e 76 135
e 78 112
e 78 96
e 79 95
e 79 115
e 80 131
e 81 141
e 82 147
e 82 127
e 82 169
e 82 146
e 83 153
e 84 145
e 84 141
e 86 170
e 87 144
e 87 160
e 87 98
e 88 143
e 88 110
e 88 89
e 89 114
e 89 117
e 90 156
e 91 140
e 92 161
e 95 104
e 96 144
e 99 137
e 99 105
e 100 108
e 101 163
e 101 127
e 102 129
e 102 134
e 103 158
e 105 108
e 106 110
e 110 158
e 111 158
e 118 156
e 119 138
e 122 174
e 124 148
e 126 136
e 128 159
e 128 161
e 130 172
e 130 164
e 131 143
e 133 148
e 136 173
e 138 155
e 138 167
e 140 153
e 141 154
e 147 157
e 148 167
e 149 174
e 150 169
e 151 164
e 154 166
e 164 171
